(set-option :produce-proofs true)
(set-info :source "{ Simple test for interpolation with quantified formulae }")
(set-logic QF_UFLIA)
(declare-fun P ( Int) Bool)
(declare-fun b () Int)
(assert (! (forall ((x Int)) (P x)) :named IP_0))
(assert (! (not (P b)) :named IP_1))
(check-sat)
(get-interpolants IP_0 IP_1)
(exit)
